c nIsolatedPIs 0
c maxPI 32
p cnf 220 565
c gate 33 -14 -30 0
-14 -33 0
-30 -33 0
14 30 33 0
c gate 34 14 30 0
14 -34 0
30 -34 0
-14 -30 34 0
c gate 35 -33 -34 0
-33 -35 0
-34 -35 0
33 34 35 0
c gate 36 12 28 0
12 -36 0
28 -36 0
-12 -28 36 0
c gate 37 13 29 0
13 -37 0
29 -37 0
-13 -29 37 0
c gate 38 -36 -37 0
-36 -38 0
-37 -38 0
36 37 38 0
c gate 39 35 -38 0
35 -39 0
-38 -39 0
-35 38 39 0
c gate 40 -35 38 0
-35 -40 0
38 -40 0
35 -38 40 0
c gate 41 -39 -40 0
-39 -41 0
-40 -41 0
39 40 41 0
c gate 42 -13 -29 0
-13 -42 0
-29 -42 0
13 29 42 0
c gate 43 -12 -28 0
-12 -43 0
-28 -43 0
12 28 43 0
c gate 44 -36 -43 0
-36 -44 0
-43 -44 0
36 43 44 0
c gate 45 -11 -27 0
-11 -45 0
-27 -45 0
11 27 45 0
c gate 46 -10 -26 0
-10 -46 0
-26 -46 0
10 26 46 0
c gate 47 9 25 0
9 -47 0
25 -47 0
-9 -25 47 0
c gate 48 8 24 0
8 -48 0
24 -48 0
-8 -24 48 0
c gate 49 -7 -23 0
-7 -49 0
-23 -49 0
7 23 49 0
c gate 50 -48 49 0
-48 -50 0
49 -50 0
48 -49 50 0
c gate 51 -9 -25 0
-9 -51 0
-25 -51 0
9 25 51 0
c gate 52 -8 -24 0
-8 -52 0
-24 -52 0
8 24 52 0
c gate 53 -51 -52 0
-51 -53 0
-52 -53 0
51 52 53 0
c gate 54 -50 53 0
-50 -54 0
53 -54 0
50 -53 54 0
c gate 55 2 18 0
2 -55 0
18 -55 0
-2 -18 55 0
c gate 56 1 17 0
1 -56 0
17 -56 0
-1 -17 56 0
c gate 57 -55 -56 0
-55 -57 0
-56 -57 0
55 56 57 0
c gate 58 -2 -18 0
-2 -58 0
-18 -58 0
2 18 58 0
c gate 59 -3 -19 0
-3 -59 0
-19 -59 0
3 19 59 0
c gate 60 -58 -59 0
-58 -60 0
-59 -60 0
58 59 60 0
c gate 61 -57 60 0
-57 -61 0
60 -61 0
57 -60 61 0
c gate 62 4 20 0
4 -62 0
20 -62 0
-4 -20 62 0
c gate 63 3 19 0
3 -63 0
19 -63 0
-3 -19 63 0
c gate 64 -62 -63 0
-62 -64 0
-63 -64 0
62 63 64 0
c gate 65 -61 64 0
-61 -65 0
64 -65 0
61 -64 65 0
c gate 66 -5 -21 0
-5 -66 0
-21 -66 0
5 21 66 0
c gate 67 -4 -20 0
-4 -67 0
-20 -67 0
4 20 67 0
c gate 68 -66 -67 0
-66 -68 0
-67 -68 0
66 67 68 0
c gate 69 -65 68 0
-65 -69 0
68 -69 0
65 -68 69 0
c gate 70 6 -22 0
6 -70 0
-22 -70 0
-6 22 70 0
c gate 71 -6 22 0
-6 -71 0
22 -71 0
6 -22 71 0
c gate 72 -70 -71 0
-70 -72 0
-71 -72 0
70 71 72 0
c gate 73 5 21 0
5 -73 0
21 -73 0
-5 -21 73 0
c gate 74 -72 -73 0
-72 -74 0
-73 -74 0
72 73 74 0
c gate 75 -69 74 0
-69 -75 0
74 -75 0
69 -74 75 0
c gate 76 -6 -22 0
-6 -76 0
-22 -76 0
6 22 76 0
c gate 77 -75 -76 0
-75 -77 0
-76 -77 0
75 76 77 0
c gate 78 -48 -52 0
-48 -78 0
-52 -78 0
48 52 78 0
c gate 79 -7 23 0
-7 -79 0
23 -79 0
7 -23 79 0
c gate 80 7 -23 0
7 -80 0
-23 -80 0
-7 23 80 0
c gate 81 -79 -80 0
-79 -81 0
-80 -81 0
79 80 81 0
c gate 82 78 -81 0
78 -82 0
-81 -82 0
-78 81 82 0
c gate 83 -77 82 0
-77 -83 0
82 -83 0
77 -82 83 0
c gate 84 54 -83 0
54 -84 0
-83 -84 0
-54 83 84 0
c gate 85 -47 -84 0
-47 -85 0
-84 -85 0
47 84 85 0
c gate 86 -46 -85 0
-46 -86 0
-85 -86 0
46 85 86 0
c gate 87 11 27 0
11 -87 0
27 -87 0
-11 -27 87 0
c gate 88 10 26 0
10 -88 0
26 -88 0
-10 -26 88 0
c gate 89 -87 -88 0
-87 -89 0
-88 -89 0
87 88 89 0
c gate 90 -86 89 0
-86 -90 0
89 -90 0
86 -89 90 0
c gate 91 -45 -90 0
-45 -91 0
-90 -91 0
45 90 91 0
c gate 92 44 91 0
44 -92 0
91 -92 0
-44 -91 92 0
c gate 93 38 -92 0
38 -93 0
-92 -93 0
-38 92 93 0
c gate 94 -42 -93 0
-42 -94 0
-93 -94 0
42 93 94 0
c gate 95 35 -94 0
35 -95 0
-94 -95 0
-35 94 95 0
c gate 96 -35 94 0
-35 -96 0
94 -96 0
35 -94 96 0
c gate 97 -95 -96 0
-95 -97 0
-96 -97 0
95 96 97 0
c gate 98 -41 -97 0
-41 -98 0
-97 -98 0
41 97 98 0
c gate 99 41 97 0
41 -99 0
97 -99 0
-41 -97 99 0
c gate 100 -98 -99 0
-98 -100 0
-99 -100 0
98 99 100 0
c gate 101 -47 -88 0
-47 -101 0
-88 -101 0
47 88 101 0
c gate 102 -54 101 0
-54 -102 0
101 -102 0
54 -101 102 0
c gate 103 -45 -46 0
-45 -103 0
-46 -103 0
45 46 103 0
c gate 104 -102 103 0
-102 -104 0
103 -104 0
102 -103 104 0
c gate 105 -87 -104 0
-87 -105 0
-104 -105 0
87 104 105 0
c gate 106 -44 91 0
-44 -106 0
91 -106 0
44 -91 106 0
c gate 107 105 -106 0
105 -107 0
-106 -107 0
-105 106 107 0
c gate 108 44 -91 0
44 -108 0
-91 -108 0
-44 91 108 0
c gate 109 -105 -108 0
-105 -109 0
-108 -109 0
105 108 109 0
c gate 110 -107 -109 0
-107 -110 0
-109 -110 0
107 109 110 0
c gate 111 100 110 0
100 -111 0
110 -111 0
-100 -110 111 0
c gate 112 15 31 0
15 -112 0
31 -112 0
-15 -31 112 0
c gate 113 -15 -31 0
-15 -113 0
-31 -113 0
15 31 113 0
c gate 114 -112 -113 0
-112 -114 0
-113 -114 0
112 113 114 0
c gate 115 -34 -39 0
-34 -115 0
-39 -115 0
34 39 115 0
c gate 116 114 -115 0
114 -116 0
-115 -116 0
-114 115 116 0
c gate 117 -112 -116 0
-112 -117 0
-116 -117 0
112 116 117 0
c gate 118 -16 -32 0
-16 -118 0
-32 -118 0
16 32 118 0
c gate 119 16 32 0
16 -119 0
32 -119 0
-16 -32 119 0
c gate 120 -118 -119 0
-118 -120 0
-119 -120 0
118 119 120 0
c gate 121 117 120 0
117 -121 0
120 -121 0
-117 -120 121 0
c gate 122 -117 -120 0
-117 -122 0
-120 -122 0
117 120 122 0
c gate 123 -121 -122 0
-121 -123 0
-122 -123 0
121 122 123 0
c gate 124 -33 -95 0
-33 -124 0
-95 -124 0
33 95 124 0
c gate 125 114 -124 0
114 -125 0
-124 -125 0
-114 124 125 0
c gate 126 -113 -125 0
-113 -126 0
-125 -126 0
113 125 126 0
c gate 127 -120 126 0
-120 -127 0
126 -127 0
120 -126 127 0
c gate 128 120 -126 0
120 -128 0
-126 -128 0
-120 126 128 0
c gate 129 -127 -128 0
-127 -129 0
-128 -129 0
127 128 129 0
c gate 130 -123 129 0
-123 -130 0
129 -130 0
123 -129 130 0
c gate 131 123 -129 0
123 -131 0
-129 -131 0
-123 129 131 0
c gate 132 -114 115 0
-114 -132 0
115 -132 0
114 -115 132 0
c gate 133 -116 -132 0
-116 -133 0
-132 -133 0
116 132 133 0
c gate 134 -114 124 0
-114 -134 0
124 -134 0
114 -124 134 0
c gate 135 -125 -134 0
-125 -135 0
-134 -135 0
125 134 135 0
c gate 136 -133 -135 0
-133 -136 0
-135 -136 0
133 135 136 0
c gate 137 133 135 0
133 -137 0
135 -137 0
-133 -135 137 0
c gate 138 -37 -42 0
-37 -138 0
-42 -138 0
37 42 138 0
c gate 139 92 -138 0
92 -139 0
-138 -139 0
-92 138 139 0
c gate 140 -98 -139 0
-98 -140 0
-139 -140 0
98 139 140 0
c gate 141 -137 -140 0
-137 -141 0
-140 -141 0
137 140 141 0
c gate 142 -136 -141 0
-136 -142 0
-141 -142 0
136 141 142 0
c gate 143 -131 142 0
-131 -143 0
142 -143 0
131 -142 143 0
c gate 144 -130 -143 0
-130 -144 0
-143 -144 0
130 143 144 0
c gate 145 -111 -144 0
-111 -145 0
-144 -145 0
111 144 145 0
c gate 146 -83 -92 0
-83 -146 0
-92 -146 0
83 92 146 0
c gate 147 100 146 0
100 -147 0
146 -147 0
-100 -146 147 0
c gate 148 -145 -147 0
-145 -148 0
-147 -148 0
145 147 148 0
c gate 149 -45 -87 0
-45 -149 0
-87 -149 0
45 87 149 0
c gate 150 10 -26 0
10 -150 0
-26 -150 0
-10 26 150 0
c gate 151 8 -24 0
8 -151 0
-24 -151 0
-8 24 151 0
c gate 152 -47 -51 0
-47 -152 0
-51 -152 0
47 51 152 0
c gate 153 -151 -152 0
-151 -153 0
-152 -153 0
151 152 153 0
c gate 154 -10 26 0
-10 -154 0
26 -154 0
10 -26 154 0
c gate 155 -9 25 0
-9 -155 0
25 -155 0
9 -25 155 0
c gate 156 -154 -155 0
-154 -156 0
-155 -156 0
154 155 156 0
c gate 157 -153 156 0
-153 -157 0
156 -157 0
153 -156 157 0
c gate 158 -150 -157 0
-150 -158 0
-157 -158 0
150 157 158 0
c gate 159 -70 -80 0
-70 -159 0
-80 -159 0
70 80 159 0
c gate 160 -2 18 0
-2 -160 0
18 -160 0
2 -18 160 0
c gate 161 -1 17 0
-1 -161 0
17 -161 0
1 -17 161 0
c gate 162 -160 -161 0
-160 -162 0
-161 -162 0
160 161 162 0
c gate 163 2 -18 0
2 -163 0
-18 -163 0
-2 18 163 0
c gate 164 3 -19 0
3 -164 0
-19 -164 0
-3 19 164 0
c gate 165 -163 -164 0
-163 -165 0
-164 -165 0
163 164 165 0
c gate 166 -162 165 0
-162 -166 0
165 -166 0
162 -165 166 0
c gate 167 -4 20 0
-4 -167 0
20 -167 0
4 -20 167 0
c gate 168 -3 19 0
-3 -168 0
19 -168 0
3 -19 168 0
c gate 169 -167 -168 0
-167 -169 0
-168 -169 0
167 168 169 0
c gate 170 -166 169 0
-166 -170 0
169 -170 0
166 -169 170 0
c gate 171 5 -21 0
5 -171 0
-21 -171 0
-5 21 171 0
c gate 172 4 -20 0
4 -172 0
-20 -172 0
-4 20 172 0
c gate 173 -171 -172 0
-171 -173 0
-172 -173 0
171 172 173 0
c gate 174 -170 173 0
-170 -174 0
173 -174 0
170 -173 174 0
c gate 175 -5 21 0
-5 -175 0
21 -175 0
5 -21 175 0
c gate 176 72 -175 0
72 -176 0
-175 -176 0
-72 175 176 0
c gate 177 -174 176 0
-174 -177 0
176 -177 0
174 -176 177 0
c gate 178 159 -177 0
159 -178 0
-177 -178 0
-159 177 178 0
c gate 179 -79 -178 0
-79 -179 0
-178 -179 0
79 178 179 0
c gate 180 -78 179 0
-78 -180 0
179 -180 0
78 -179 180 0
c gate 181 156 180 0
156 -181 0
180 -181 0
-156 -180 181 0
c gate 182 158 -181 0
158 -182 0
-181 -182 0
-158 181 182 0
c gate 183 -149 182 0
-149 -183 0
182 -183 0
149 -182 183 0
c gate 184 149 -182 0
149 -184 0
-182 -184 0
-149 182 184 0
c gate 185 -183 -184 0
-183 -185 0
-184 -185 0
183 184 185 0
c gate 186 158 -185 0
158 -186 0
-185 -186 0
-158 185 186 0
c gate 187 121 126 0
121 -187 0
126 -187 0
-121 -126 187 0
c gate 188 -177 -187 0
-177 -188 0
-187 -188 0
177 187 188 0
c gate 189 148 188 0
148 -189 0
188 -189 0
-148 -188 189 0
c gate 190 -81 177 0
-81 -190 0
177 -190 0
81 -177 190 0
c gate 191 120 -177 0
120 -191 0
-177 -191 0
-120 177 191 0
c gate 192 131 191 0
131 -192 0
191 -192 0
-131 -191 192 0
c gate 193 -190 -192 0
-190 -193 0
-192 -193 0
190 192 193 0
c gate 194 -189 193 0
-189 -194 0
193 -194 0
189 -193 194 0
c gate 195 -180 -194 0
-180 -195 0
-194 -195 0
180 194 195 0
c gate 196 78 159 0
78 -196 0
159 -196 0
-78 -159 196 0
c gate 197 179 196 0
179 -197 0
196 -197 0
-179 -196 197 0
c gate 198 -180 -197 0
-180 -198 0
-197 -198 0
180 197 198 0
c gate 199 -46 -88 0
-46 -199 0
-88 -199 0
46 88 199 0
c gate 200 -152 -199 0
-152 -200 0
-199 -200 0
152 199 200 0
c gate 201 -197 200 0
-197 -201 0
200 -201 0
197 -200 201 0
c gate 202 -198 -201 0
-198 -202 0
-201 -202 0
198 201 202 0
c gate 203 -195 -202 0
-195 -203 0
-202 -203 0
195 202 203 0
c gate 204 -186 203 0
-186 -204 0
203 -204 0
186 -203 204 0
c gate 205 -183 -204 0
-183 -205 0
-204 -205 0
183 204 205 0
c gate 206 -35 -114 0
-35 -206 0
-114 -206 0
35 114 206 0
c gate 207 -44 -120 0
-44 -207 0
-120 -207 0
44 120 207 0
c gate 208 -138 207 0
-138 -208 0
207 -208 0
138 -207 208 0
c gate 209 206 208 0
206 -209 0
208 -209 0
-206 -208 209 0
c gate 210 183 209 0
183 -210 0
209 -210 0
-183 -209 210 0
c gate 211 -205 -210 0
-205 -211 0
-210 -211 0
205 210 211 0
c gate 212 -148 211 0
-148 -212 0
211 -212 0
148 -211 212 0
c gate 213 76 81 0
76 -213 0
81 -213 0
-76 -81 213 0
c gate 214 -77 -213 0
-77 -214 0
-213 -214 0
77 213 214 0
c gate 215 -110 214 0
-110 -215 0
214 -215 0
110 -214 215 0
c gate 216 -92 -215 0
-92 -216 0
-215 -216 0
92 215 216 0
c gate 217 100 216 0
100 -217 0
216 -217 0
-100 -216 217 0
c gate 218 -144 -217 0
-144 -218 0
-217 -218 0
144 217 218 0
c gate 219 -211 -218 0
-211 -219 0
-218 -219 0
211 218 219 0
c gate 220 -212 -219 0
-212 -220 0
-219 -220 0
212 219 220 0
c PO
220 0
